(declare-const a Real)
(declare-const b Real)
(declare-const c Real)
(assert (= (* a b c) 1))
(assert (> a 0))
(assert (> b 0))
(assert (> c 0))
(assert (not (<= (+ (* 832464 (pow (+ (* 2 a) (* 2 b)) 4)) (* (/ -1 1842265034448201689579126784) (pow (+ (* 533907456 a) (* 691980288 b)) 4)) (* -1358954496 (pow a (pow 3 -1)) (pow b (/ 11 3))) (* -679477248 (pow a (/ 10 3)) (pow b (/ 2 3))) (* 688054272 b (pow a 3)) (* 2363154432 a (pow b 3))) 0)))
(check-sat)
(get-model)
(exit)